networks/zoo_46_203/zoo_46_203-lower.txt
Number of groups: 22
Flow 7: {18 17 0} {17 16 0} {16 39 0} 
Flow 13: {4 27 0} 
Flow 14: {3 4 0} {4 1 0} {1 2 0} {2 7 0} {7 8 0} {8 6 0} {6 29 0} 
Flow 46: {16 23 0} {23 46 0} 
Flow 47: {7 2 0} {2 1 0} {1 24 0} 
Flow 53: {6 9 0} {9 32 0} 
Flow 70: {8 7 0} {7 30 0} 
Flow 78: {19 18 0} {18 41 0} 
Flow 80: {1 4 0} {4 3 0} {3 22 0} {22 20 0} 
Flow 85: {2 25 0} 
Flow 94: {15 38 0} 
Flow 106: {11 9 0} {9 6 0} {6 8 0} {8 31 0} 
Flow 120: {12 9 0} {9 10 0} {10 13 0} {13 15 0} {15 14 0} {14 37 0} 
Flow 129: {13 10 0} {10 9 0} 
Flow 131: {10 33 0} 
Flow 134: {14 23 0} {23 16 0} {16 17 0} {17 40 0} 
Flow 138: {17 18 0} {18 19 0} {19 21 0} {21 22 0} {22 45 0} 
Flow 148: {23 14 0} {14 15 0} {15 13 0} {13 36 0} 
Flow 158: {20 22 0} {22 3 0} {3 26 0} 
Flow 166: {20 21 0} {21 19 0} {19 42 0} 
Flow 180: {21 20 0} {20 43 0} 
Flow 189: {22 21 0} {21 44 0} 
Time taken running everything: 1 seconds
