networks/zoo_46_203/zoo_46_203-lower.sol
<?xml version = "1.0" encoding="UTF-8" standalone="yes"?>
<CPLEXSolution version="1.2">
 <header
   problemName="networks/zoo_46_203/zoo_46_203-lower.lp"
   solutionName="incumbent"
   solutionIndex="-1"
   objectiveValue="22"
   solutionTypeValue="3"
   solutionTypeString="primal"
   solutionStatusValue="101"
   solutionStatusString="integer optimal solution"
   solutionMethodString="mip"
   primalFeasible="1"
   dualFeasible="1"
   MIPNodes="0"
   MIPIterations="663"
   writeLevel="3"/>
 <quality
   epInt="1.0000000000000001e-05"
   epRHS="9.9999999999999995e-07"
   maxIntInfeas="0"
   maxPrimalInfeas="0"
   maxX="1"
   maxSlack="1"/>
 <variables>
  <variable name="Y(7,16)" index="266" value="1"/>
  <variable name="Y(13,4)" index="507" value="1"/>
  <variable name="Y(14,6)" index="550" value="1"/>
  <variable name="Y(46,23)" index="1911" value="1"/>
  <variable name="Y(47,1)" index="1932" value="1"/>
  <variable name="Y(53,9)" index="2191" value="1"/>
  <variable name="Y(70,7)" index="2903" value="1"/>
  <variable name="Y(78,18)" index="3250" value="1"/>
  <variable name="Y(80,22)" index="3338" value="1"/>
  <variable name="Y(85,2)" index="3529" value="1"/>
  <variable name="Y(94,15)" index="3919" value="1"/>
  <variable name="Y(106,8)" index="4416" value="1"/>
  <variable name="Y(120,14)" index="5010" value="1"/>
  <variable name="Y(129,10)" index="5384" value="1"/>
  <variable name="Y(131,10)" index="5468" value="1"/>
  <variable name="Y(134,17)" index="5601" value="1"/>
  <variable name="Y(138,22)" index="5774" value="1"/>
  <variable name="Y(148,13)" index="6185" value="1"/>
  <variable name="Y(158,3)" index="6596" value="1"/>
  <variable name="Y(166,19)" index="6947" value="1"/>
  <variable name="Y(180,20)" index="7536" value="1"/>
  <variable name="Y(189,21)" index="7915" value="1"/>
  <variable name="X(1,2,14)" index="8539" value="1"/>
  <variable name="X(1,4,80)" index="8808" value="1"/>
  <variable name="X(1,24,47)" index="8978" value="1"/>
  <variable name="X(2,1,47)" index="9181" value="1"/>
  <variable name="X(2,7,14)" index="9351" value="1"/>
  <variable name="X(2,25,85)" index="9625" value="1"/>
  <variable name="X(3,4,14)" index="9757" value="1"/>
  <variable name="X(3,22,80)" index="10026" value="1"/>
  <variable name="X(3,26,158)" index="10307" value="1"/>
  <variable name="X(4,1,14)" index="10366" value="1"/>
  <variable name="X(4,3,80)" index="10635" value="1"/>
  <variable name="X(4,27,13)" index="10771" value="1"/>
  <variable name="X(6,8,106)" index="11067" value="1"/>
  <variable name="X(6,9,53)" index="11217" value="1"/>
  <variable name="X(6,29,14)" index="11381" value="1"/>
  <variable name="X(7,2,47)" index="11617" value="1"/>
  <variable name="X(7,8,14)" index="11787" value="1"/>
  <variable name="X(7,30,70)" index="12046" value="1"/>
  <variable name="X(8,6,14)" index="12193" value="1"/>
  <variable name="X(8,7,70)" index="12452" value="1"/>
  <variable name="X(8,31,106)" index="12691" value="1"/>
  <variable name="X(9,6,106)" index="12894" value="1"/>
  <variable name="X(9,10,120)" index="13111" value="1"/>
  <variable name="X(9,32,53)" index="13247" value="1"/>
  <variable name="X(10,9,129)" index="13526" value="1"/>
  <variable name="X(10,13,120)" index="13720" value="1"/>
  <variable name="X(10,33,131)" index="13934" value="1"/>
  <variable name="X(11,9,106)" index="14112" value="1"/>
  <variable name="X(12,9,120)" index="14329" value="1"/>
  <variable name="X(13,10,129)" index="14541" value="1"/>
  <variable name="X(13,15,120)" index="14735" value="1"/>
  <variable name="X(13,36,148)" index="14966" value="1"/>
  <variable name="X(14,15,148)" index="15169" value="1"/>
  <variable name="X(14,23,134)" index="15358" value="1"/>
  <variable name="X(14,37,120)" index="15547" value="1"/>
  <variable name="X(15,13,148)" index="15778" value="1"/>
  <variable name="X(15,14,120)" index="15953" value="1"/>
  <variable name="X(15,38,94)" index="16130" value="1"/>
  <variable name="X(16,17,134)" index="16373" value="1"/>
  <variable name="X(16,23,46)" index="16488" value="1"/>
  <variable name="X(16,39,7)" index="16652" value="1"/>
  <variable name="X(17,16,7)" index="16855" value="1"/>
  <variable name="X(17,18,138)" index="17189" value="1"/>
  <variable name="X(17,40,134)" index="17388" value="1"/>
  <variable name="X(18,17,7)" index="17464" value="1"/>
  <variable name="X(18,19,138)" index="17798" value="1"/>
  <variable name="X(18,41,78)" index="17941" value="1"/>
  <variable name="X(19,18,78)" index="18144" value="1"/>
  <variable name="X(19,21,138)" index="18407" value="1"/>
  <variable name="X(19,42,166)" index="18638" value="1"/>
  <variable name="X(20,21,166)" index="18841" value="1"/>
  <variable name="X(20,22,158)" index="19036" value="1"/>
  <variable name="X(20,43,180)" index="19261" value="1"/>
  <variable name="X(21,19,166)" index="19450" value="1"/>
  <variable name="X(21,20,180)" index="19667" value="1"/>
  <variable name="X(21,22,138)" index="19828" value="1"/>
  <variable name="X(21,44,189)" index="20082" value="1"/>
  <variable name="X(22,3,158)" index="20254" value="1"/>
  <variable name="X(22,20,80)" index="20379" value="1"/>
  <variable name="X(22,21,189)" index="20691" value="1"/>
  <variable name="X(22,45,138)" index="20843" value="1"/>
  <variable name="X(23,14,148)" index="21056" value="1"/>
  <variable name="X(23,16,134)" index="21245" value="1"/>
  <variable name="X(23,46,46)" index="21360" value="1"/>
 </variables>
</CPLEXSolution>
